p cnf 154 209               
17 48 0
-1 -9 40 0
-40 48 0
18 49 0
-2 -10 41 0
-41 49 0
19 50 0
-3 -11 42 0
-42 50 0
20 51 0
-4 -12 43 0
-43 51 0
21 52 0
-5 -13 44 0
-44 52 0
22 53 0
-6 -14 45 0
-45 53 0
23 54 0
-7 -15 46 0
-46 54 0
24 55 0
-8 -16 47 0
-47 55 0
-48 -49 -50 -51 -52 -53 -54 -55 56 0
-56 -75 0
-18 -17 -25 0
25 -39 0
-17 26 0
-18 26 0
17 18 -26 0
-26 -19 -27 0
27 -39 0
-19 28 0
-26 28 0
19 26 -28 0
-28 -20 -29 0
29 -39 0
-20 30 0
-28 30 0
20 28 -30 0
-30 -21 -31 0
31 -39 0
-21 32 0
-30 32 0
21 30 -32 0
-32 -22 -33 0
33 -39 0
-22 34 0
-32 34 0
22 32 -34 0
-34 -23 -35 0
35 -39 0
-23 36 0
-34 36 0
23 34 -36 0
-36 -24 -37 0
37 -39 0
24 36 -38 0
38 -39 0
39 -75 0
-17 1 -57 0
57 -65 0
-18 2 -58 0
58 -65 0
-19 3 -59 0
59 -65 0
-20 4 -60 0
60 -65 0
-21 5 -61 0
61 -65 0
-22 6 -62 0
62 -65 0
-23 7 -63 0
63 -65 0
-24 8 -64 0
64 -65 0
65 -75 0
-17 9 -66 0
66 -74 0
-18 10 -67 0
67 -74 0
-19 11 -68 0
68 -74 0
-20 12 -69 0
69 -74 0
-21 13 -70 0
70 -74 0
-22 14 -71 0
71 -74 0
-23 15 -72 0
72 -74 0
-24 16 -73 0
73 -74 0
74 -75 0
-1 2 -76 0
76 -86 0
-1 -2 77 0
1 2 77 0
-2 2 77 0
-9 10 -78 0
-77 78 -79 0
79 -86 0
-9 -10 80 0
9 10 80 0
-10 10 80 0
-77 -80 81 0
-17 18 -82 0
-81 82 -83 0
83 -86 0
86 -153 0
-2 3 -87 0
87 -97 0
-2 -3 88 0
2 3 88 0
-3 3 88 0
-10 11 -89 0
-88 89 -90 0
90 -97 0
-10 -11 91 0
10 11 91 0
-11 11 91 0
-88 -91 92 0
-18 19 -93 0
-92 93 -94 0
94 -97 0
97 -153 0
-3 4 -98 0
98 -108 0
-3 -4 99 0
3 4 99 0
-4 4 99 0
-11 12 -100 0
-99 100 -101 0
101 -108 0
-11 -12 102 0
11 12 102 0
-12 12 102 0
-99 -102 103 0
-19 20 -104 0
-103 104 -105 0
105 -108 0
108 -153 0
-4 5 -109 0
109 -119 0
-4 -5 110 0
4 5 110 0
-5 5 110 0
-12 13 -111 0
-110 111 -112 0
112 -119 0
-12 -13 113 0
12 13 113 0
-13 13 113 0
-110 -113 114 0
-20 21 -115 0
-114 115 -116 0
116 -119 0
119 -153 0
-5 6 -120 0
120 -130 0
-5 -6 121 0
5 6 121 0
-6 6 121 0
-13 14 -122 0
-121 122 -123 0
123 -130 0
-13 -14 124 0
13 14 124 0
-14 14 124 0
-121 -124 125 0
-21 22 -126 0
-125 126 -127 0
127 -130 0
130 -153 0
-6 7 -131 0
131 -141 0
-6 -7 132 0
6 7 132 0
-7 7 132 0
-14 15 -133 0
-132 133 -134 0
134 -141 0
-14 -15 135 0
14 15 135 0
-15 15 135 0
-132 -135 136 0
-22 23 -137 0
-136 137 -138 0
138 -141 0
141 -153 0
-7 8 -142 0
142 -152 0
-7 -8 143 0
7 8 143 0
-8 8 143 0
-15 16 -144 0
-143 144 -145 0
145 -152 0
-15 -16 146 0
15 16 146 0
-16 16 146 0
-143 -146 147 0
-23 24 -148 0
-147 148 -149 0
149 -152 0
152 -153 0
75 0
153 0
